K-Path Generated by VASPKIT.
   20
Line-Mode
Reciprocal
   0.0000000000   0.0000000000   0.0000000000    $\Gamma$          
   0.0000000000   0.5000000000   0.0000000000    F             
 
   0.0000000000   0.5000000000   0.0000000000    F              
   0.0000000000   0.5000000000   0.5000000000    Q              
 
   0.0000000000   0.5000000000   0.5000000000    Q              
   0.0000000000   0.0000000000   0.5000000000    Z          
 
   0.0000000000   0.0000000000   0.5000000000    Z          
   0.0000000000   0.0000000000   0.0000000000    $\Gamma$             
 
